NAME          ClpDefau  FREE
ROWS
 N  OBJROW
 L  ZMUNI1_PCT
 L  ZMUNI2_PCT
 L  ZMUNI3_PCT
 L  ZMUNI4_PCT
 L  ZMUNI5_PCT
 L  ZMUNI6_PCT
 L  ZMUNI7_PCT
 L  ZMUNI8_PCT
 L  ZMUNI9_PCT
COLUMNS
    QMUNI1 OBJROW 1.          
    QMUNI1 ZMUNI1_PCT 28316.7839  
    QMUNI1 ZMUNI2_PCT 1874.5422   
    QMUNI1 ZMUNI3_PCT 4361.0573   
    QMUNI1 ZMUNI4_PCT 3219.27071  
    QMUNI1 ZMUNI5_PCT 189.1136    
    QMUNI1 ZMUNI6_PCT 352.09656   
    QMUNI1 ZMUNI7_PCT 1572.2275   
    QMUNI1 ZMUNI8_PCT 1290.3214   
    QMUNI1 ZMUNI9_PCT 522.0413    
    QMUNI2 OBJROW 1.          
    QMUNI2 ZMUNI1_PCT 1560.4973   
    QMUNI2 ZMUNI2_PCT 32982.1587  
    QMUNI2 ZMUNI3_PCT 2368.8316   
    QMUNI2 ZMUNI4_PCT 2548.98071  
    QMUNI2 ZMUNI5_PCT  -81.1577   
    QMUNI2 ZMUNI6_PCT  -39.29138  
    QMUNI2 ZMUNI7_PCT 564.3845    
    QMUNI2 ZMUNI8_PCT 825.5005    
    QMUNI2 ZMUNI9_PCT 716.5909    
    QMUNI3 OBJROW 1.          
    QMUNI3 ZMUNI1_PCT 4335.2127   
    QMUNI3 ZMUNI2_PCT 2698.6122   
    QMUNI3 ZMUNI3_PCT 29687.5954  
    QMUNI3 ZMUNI4_PCT 5247.83134  
    QMUNI3 ZMUNI5_PCT 281.62      
    QMUNI3 ZMUNI6_PCT 419.80744   
    QMUNI3 ZMUNI7_PCT 1428.0319   
    QMUNI3 ZMUNI8_PCT 1337.0514   
    QMUNI3 ZMUNI9_PCT 603.7712    
    QMUNI4 OBJROW 1.          
    QMUNI4 ZMUNI1_PCT 3448.8678   
    QMUNI4 ZMUNI2_PCT 3071.785    
    QMUNI4 ZMUNI3_PCT 5619.4306   
    QMUNI4 ZMUNI4_PCT 104031.18133
    QMUNI4 ZMUNI5_PCT 325.8705    
    QMUNI4 ZMUNI6_PCT 436.5921    
    QMUNI4 ZMUNI7_PCT 1375.9613   
    QMUNI4 ZMUNI8_PCT 1340.4847   
    QMUNI4 ZMUNI9_PCT 771.0457    
    QMUNI5 OBJROW 1.          
    QMUNI5 ZMUNI1_PCT  -202.0836  
    QMUNI5 ZMUNI2_PCT  -239.6584  
    QMUNI5 ZMUNI3_PCT  -228.9772  
    QMUNI5 ZMUNI4_PCT  -219.9173  
    QMUNI5 ZMUNI5_PCT 31786.8232  
    QMUNI5 ZMUNI6_PCT 2138.04245  
    QMUNI5 ZMUNI7_PCT  -421.7148  
    QMUNI5 ZMUNI8_PCT  -512.1231  
    QMUNI5 ZMUNI9_PCT  -557.2319  
    QMUNI6 OBJROW 1.          
    QMUNI6 ZMUNI1_PCT 618.8393    
    QMUNI6 ZMUNI2_PCT 348.8541    
    QMUNI6 ZMUNI3_PCT 519.0849    
    QMUNI6 ZMUNI4_PCT 410.79521   
    QMUNI6 ZMUNI5_PCT 3413.7725   
    QMUNI6 ZMUNI6_PCT 31595.70694 
    QMUNI6 ZMUNI7_PCT 1116.9434   
    QMUNI6 ZMUNI8_PCT 837.5168    
    QMUNI6 ZMUNI9_PCT 577.5452    
    QMUNI7 OBJROW 1.          
    QMUNI7 ZMUNI1_PCT 1125.8125   
    QMUNI7 ZMUNI2_PCT 533.1039    
    QMUNI7 ZMUNI3_PCT 963.8786    
    QMUNI7 ZMUNI4_PCT 719.35654   
    QMUNI7 ZMUNI5_PCT  -469.2078  
    QMUNI7 ZMUNI6_PCT  -262.54654 
    QMUNI7 ZMUNI7_PCT 26207.7332  
    QMUNI7 ZMUNI8_PCT 1477.0508   
    QMUNI7 ZMUNI9_PCT  -36.1443   
    QMUNI8 OBJROW 1.          
    QMUNI8 ZMUNI1_PCT 960.2547    
    QMUNI8 ZMUNI2_PCT 815.2008    
    QMUNI8 ZMUNI3_PCT 984.2873    
    QMUNI8 ZMUNI4_PCT 743.4845    
    QMUNI8 ZMUNI5_PCT 23.1743     
    QMUNI8 ZMUNI6_PCT 128.36457   
    QMUNI8 ZMUNI7_PCT 1981.7352   
    QMUNI8 ZMUNI8_PCT 25839.8056  
    QMUNI8 ZMUNI9_PCT 935.8406    
    QMUNI9 OBJROW 1.          
    QMUNI9 ZMUNI1_PCT 373.745     
    QMUNI9 ZMUNI2_PCT 672.0543    
    QMUNI9 ZMUNI3_PCT 473.9761    
    QMUNI9 ZMUNI4_PCT 426.00632   
    QMUNI9 ZMUNI5_PCT  -382.9003  
    QMUNI9 ZMUNI6_PCT  -335.40725 
    QMUNI9 ZMUNI7_PCT 220.6802    
    QMUNI9 ZMUNI8_PCT 757.5989    
    QMUNI9 ZMUNI9_PCT 24273.2048  
RHS
    RHS ZMUNI1_PCT  -0.65293362
    RHS ZMUNI2_PCT  -0.77109458
    RHS ZMUNI3_PCT  -0.75000573
    RHS ZMUNI4_PCT  -0.27799109
    RHS ZMUNI5_PCT  -1.5544196 
    RHS ZMUNI6_PCT  -1.31002065
    RHS ZMUNI7_PCT  -2.86177939
    RHS ZMUNI8_PCT  -2.51030546
    RHS ZMUNI9_PCT  -2.00565076
BOUNDS
 LO BOUND QMUNI1 -0.001057097
 UP BOUND QMUNI1      1.1e+10
 LO BOUND QMUNI2 -0.000771898
 UP BOUND QMUNI2      1.1e+10
 LO BOUND QMUNI3 -0.000843057
 UP BOUND QMUNI3      1.1e+10
 LO BOUND QMUNI4 -0.000280541
 UP BOUND QMUNI4      1.1e+10
 LO BOUND QMUNI5 -0.000697229
 UP BOUND QMUNI5      1.1e+10
 LO BOUND QMUNI6 -0.000861779
 UP BOUND QMUNI6      1.1e+10
 LO BOUND QMUNI7 -0.000604593
 UP BOUND QMUNI7      1.1e+10
 LO BOUND QMUNI8 -0.00068841 
 UP BOUND QMUNI8      1.1e+10
 LO BOUND QMUNI9 -0.000743946
 UP BOUND QMUNI9      1.1e+10
ENDATA
